10
1 1
2 4
3 5
4 7
5 5
6 9
7 6
8 1
9 8
26
0 1 85
1 0 85
0 2 97
2 0 97
0 3 11
3 0 11
0 4 61
4 0 61
0 5 84
5 0 84
0 6 51
6 0 51
0 7 58
7 0 58
0 8 24
8 0 24
0 9 16
9 0 16
1 5 9
1 6 56
2 3 40
2 8 72
3 6 29
4 9 53
7 9 33
8 9 61
